Gurobi 11.0.2: Set parameter LogToConsole to value 1
  tech:outlev = 1
Set parameter Presolve to value 1
  pre:solve = 1
Set parameter TimeLimit to value 300
  lim:time = 300
Set parameter InfUnbdInfo to value 1
Gurobi Optimizer version 11.0.2 build v11.0.2rc0 (linux64 - "Ubuntu 24.10")

CPU model: 11th Gen Intel(R) Core(TM) i5-1135G7 @ 2.40GHz, instruction set [SSE2|AVX|AVX2|AVX512]
Thread count: 4 physical cores, 8 logical processors, using up to 8 threads

Optimize a model with 342 rows, 3226 columns and 3086 nonzeros
Model fingerprint: 0xdbe762bd
Model has 348 quadratic constraints
Model has 348 general constraints
Variable types: 3226 continuous, 0 integer (0 binary)
Coefficient statistics:
  Matrix range     [1e-11, 6e+01]
  QMatrix range    [3e-06, 8e+02]
  QLMatrix range   [1e+00, 1e+00]
  Objective range  [1e+02, 3e+03]
  Bounds range     [8e-01, 9e+02]
  RHS range        [2e-03, 9e+02]
  QRHS range       [4e+01, 4e+01]
Presolve added 1186 rows and 6816 columns
Presolve time: 0.16s
Presolved: 11620 rows, 12304 columns, 53533 nonzeros
Presolved model has 174 SOS constraint(s)
Presolved model has 2436 bilinear constraint(s)

Solving non-convex MIQCP

Variable types: 12132 continuous, 172 integer (172 binary)

Root relaxation: objective 1.341970e+06, 5819 iterations, 0.36 seconds (0.07 work units)

    Nodes    |    Current Node    |     Objective Bounds      |     Work
 Expl Unexpl |  Obj  Depth IntInf | Incumbent    BestBd   Gap | It/Node Time

     0     0 1341969.78    0  331          - 1341969.78      -     -    0s
     0     0 1341969.78    0  331          - 1341969.78      -     -    0s
     0     0 1341969.78    0  331          - 1341969.78      -     -    0s
     0     0 1341969.78    0  331          - 1341969.78      -     -    0s
     0     0 1341969.78    0  331          - 1341969.78      -     -    0s
     0     0 1341969.78    0  331          - 1341969.78      -     -    0s
     0     0 1341969.78    0  331          - 1341969.78      -     -    1s
     0     0 1341969.78    0  331          - 1341969.78      -     -    1s
     0     0 1341969.78    0  331          - 1341969.78      -     -    1s
     0     0 1341969.78    0  331          - 1341969.78      -     -    1s
     0     0 1341969.78    0  331          - 1341969.78      -     -    1s
     0     0 1341969.78    0  337          - 1341969.78      -     -    2s
     0     0 1341969.78    0  336          - 1341969.78      -     -    2s
     0     0 1341969.78    0  336          - 1341969.78      -     -    2s
     0     0 1341969.78    0  336          - 1341969.78      -     -    2s
     0     0 1341969.78    0  336          - 1341969.78      -     -    2s
     0     0 1341969.78    0  336          - 1341969.78      -     -    2s
     0     0 1341969.78    0  336          - 1341969.78      -     -    2s
     0     0 1341969.78    0  336          - 1341969.78      -     -    2s
     0     0 1341969.78    0  336          - 1341969.78      -     -    2s
     0     0 1341969.78    0  336          - 1341969.78      -     -    2s
     0     0 1341969.78    0  336          - 1341969.78      -     -    2s
     0     0 1341969.78    0  328          - 1341969.78      -     -    3s
     0     0 1341969.78    0  328          - 1341969.78      -     -    3s
     0     0 1341969.78    0  328          - 1341969.78      -     -    3s
     0     0 1341969.78    0  328          - 1341969.78      -     -    3s
     0     0 1341969.78    0  328          - 1341969.78      -     -    3s
     0     0 1341969.78    0  328          - 1341969.78      -     -    3s
     0     0 1341969.78    0  328          - 1341969.78      -     -    3s
     0     0 1341969.78    0  328          - 1341969.78      -     -    3s
     0     0 1341969.78    0  328          - 1341969.78      -     -    3s
     0     0 1341969.78    0  328          - 1341969.78      -     -    3s
     0     0 1341969.78    0  328          - 1341969.78      -     -    3s
     0     0 1341969.78    0  329          - 1341969.78      -     -    4s
     0     0 1341969.78    0  319          - 1341969.78      -     -    6s
     0     0 1341969.78    0  345          - 1341969.78      -     -    6s
     0     0 1341969.78    0  295          - 1341969.78      -     -    8s
     0     0 1341969.78    0  331          - 1341969.78      -     -    8s
     0     0 1341969.78    0  293          - 1341969.78      -     -   10s
     0     0 1341969.78    0  292          - 1341969.78      -     -   10s
     0     0 1341969.78    0  296          - 1341969.78      -     -   11s
     0     0 1341969.78    0  296          - 1341969.78      -     -   13s
     0     2 1341969.78    0  296          - 1341969.78      -     -   14s
     9    12 1341969.78    4  331          - 1341969.78      -   268   15s
   171   163 1341969.78   21  323          - 1341969.78      -  93.0   20s
   294   278 1341972.30   36  338          - 1341969.78      -   113   28s
   390   299 1342082.52   55  334          - 1341969.78      -   147   32s
   415   334 1342265.24   60  377          - 1341969.78      -   205   38s
   453   377 1342324.23   80  341          - 1341969.78      -   246   43s
   510   472 1344308.51   90  385          - 1341969.78      -   274   48s
   652   586 1345225.99   98  398          - 1341969.78      -   249   54s
   831   708 infeasible  118               - 1341969.78      -   228   61s
  1014   878 1406747.92  153  418          - 1341969.78      -   213   67s
  1253  1073 infeasible  196               - 1341969.78      -   198   90s
  1539  1387 1655601.50  235  434          - 1341969.78      -   195  104s
  2146  1472 1344330.12   40  422          - 1341969.78      -   170  114s
  2268  1473 1342729.18   18    0          - 1341969.78      -   179  115s
  2270  1474 1349343.14   45  254          - 1341969.78      -   179  122s
  2271  1475 1341969.78   28  242          - 1341969.78      -   179  132s
  2273  1476 1344081.47   73  281          - 1344081.47      -   179  142s
  2275  1478 2617180.17  170  265          - 1344081.47      -   179  150s
  2277  1479 1346823.85   67  277          - 1344097.42      -   178  155s
  2279  1480 1362009.50   40  246          - 1344097.42      -   178  163s
  2281  1482 1348673.94   85  244          - 1344097.42      -   178  167s
  2283  1483 1344101.12   38  254          - 1344101.12      -   178  170s
  2285  1484 1812403.01  147  272          - 1344101.12      -   178  175s
  2287  1486 1345368.87   13  276          - 1344101.12      -   178  180s
  2289  1487 2610826.98  182  242          - 1344101.12      -   177  186s
  2290  1488 1344101.12   34  240          - 1344101.12      -   177  196s
  2292  1492 1344101.12   14  869          - 1344101.12      -   233  244s
  2298  1496 1344101.12   16  857          - 1344101.12      -   233  245s
  2322  1512 1344101.12   19  856          - 1344101.12      -   235  250s
  2363  1541 1344101.12   25  844          - 1344101.12      -   234  255s
  2407  1559 1344101.12   30  806          - 1344101.12      -   235  260s
  2466  1574 1344101.12   35  780          - 1344101.12      -   234  266s
  2530  1583 1344101.12   42  747          - 1344101.12      -   231  272s
  2604  1625 1344101.12   22  719          - 1344101.12      -   226  276s
  2663  1626 1344101.12   30  703          - 1344101.12      -   223  280s
  2761  1668 1344101.12   44  703          - 1344101.12      -   221  287s
  2801  1712 1344101.12   49  719          - 1344101.12      -   220  292s
  2883  1701 1344101.12   61  712          - 1344101.12      -   215  295s
  2989  1717 1344101.12   76  754          - 1344101.12      -   214  300s

Cutting planes:
  Gomory: 2
  Cover: 12
  Implied bound: 66
  Projected implied bound: 1
  Clique: 1
  MIR: 3
  Flow cover: 27
  RLT: 58
  Relax-and-lift: 12

Explored 3004 nodes (656445 simplex iterations) in 300.08 seconds (68.81 work units)
Thread count was 8 (of 8 available processors)

Solution count 0

Time limit reached
Best objective -, best bound 1.344101123306e+06, gap -
Gurobi 11.0.2: time limit, without a feasible solution
656445 simplex iterations
3004 branching nodes
total_cost: 0.0
